1759813
15,62,23,60,31,55,39,28,24,29,40,5,22,48,59,4,18,53,12,19,64,44,26,16,8,57,14,7,35,58,3,46,0,11,41,2,20,37,66,6,42,45,33,54,25,65,10,63,47,1,67,34,50,38,61,36,52,49,27,30,21,51,32,56,17,9,13,43